NAME : P01
COMMENT : Cordeau, J.-F., Gendreau, M., & Laporte, G. (1997)
TYPE : MVRP
DIMENSION : 54
EDGE_WEIGHT_TYPE : EUC_2D
CAPACITY : 80
NODE_COORD_SECTION
 1 37 52
 2 49 49
 3 52 64
 4 20 26
 5 40 30
 6 21 47
 7 17 63
 8 31 62
 9 52 33
 10 51 21
 11 42 41
 12 31 32
 13 5 25
 14 12 42
 15 36 16
 16 52 41
 17 27 23
 18 17 33
 19 13 13
 20 57 58
 21 62 42
 22 42 57
 23 16 57
 24 8 52
 25 7 38
 26 27 68
 27 30 48
 28 43 67
 29 58 48
 30 58 27
 31 37 69
 32 38 46
 33 46 10
 34 61 33
 35 62 63
 36 63 69
 37 32 22
 38 45 35
 39 59 15
 40 5 6
 41 10 17
 42 21 10
 43 5 64
 44 30 15
 45 39 10
 46 32 39
 47 25 32
 48 25 55
 49 48 28
 50 56 37
 51 20 20
 52 30 40
 53 50 30
 54 60 50
DEMAND_SECTION
1 0
2 0
3 0
4 0
5 7
6 30
7 16
8 9
9 21
10 15
11 19
12 23
13 11
14 5
15 19
16 29
17 23
18 21
19 10
20 15
21 3
22 41
23 9
24 28
25 8
26 8
27 16
28 10
29 28
30 7
31 15
32 14
33 6
34 19
35 11
36 12
37 23
38 26
39 17
40 6
41 9
42 15
43 14
44 7
45 27
46 13
47 11
48 16
49 10
50 5
51 25
52 17
53 18
54 10
DEPOT_SECTION
 1
 2
 3
 4
 -1
EOF
